# ORCA job from PDB
! B3LYP D3BJ def2-SVP Opt TightSCF CPCM(water)

* xyz 0 1
O          5.10775        3.67246        0.48252
C          4.66317        2.54889        0.28897
C          5.55277        1.37470        0.28474
C          5.04838        0.14844        0.07143
C          5.88055       -1.08980        0.05380
C          5.28265       -2.33864       -0.18759
C          6.03663       -3.51888       -0.20815
C          7.41140       -3.49021        0.01170
O          8.02793       -4.70859       -0.03413
C          9.43148       -4.72798        0.19441
C          8.02585       -2.26561        0.25196
C          7.26890       -1.08275        0.27263
O          3.69290       -0.07959       -0.15399
C          2.82854        0.98383       -0.15853
C          3.23852        2.29352        0.05205
C          2.31222        3.33970        0.03797
C          0.95993        3.07302       -0.18919
O          0.15202        4.17558       -0.17855
C         -1.23749        3.96274       -0.39302
C          0.54730        1.75490       -0.40241
C          1.48106        0.71167       -0.38692
H          6.59476        1.59692        0.46242
H          4.21257       -2.42193       -0.36546
H          5.54152       -4.46843       -0.39760
H          9.76668       -5.76759        0.12914
H          9.96423       -4.15743       -0.57355
H          9.67329       -4.36258        1.19800
H          9.09367       -2.18730        0.42852
H          7.80809       -0.15997        0.46685
H          2.64173        4.36326        0.20432
H         -1.73563        4.93601       -0.34778
H         -1.42289        3.53923       -1.38558
H         -1.66609        3.33221        0.39295
H         -0.49313        1.50441       -0.58367
H          1.15272       -0.31121       -0.55326
*
