# ORCA job from PDB
! B3LYP D3BJ def2-SVP Opt TightSCF CPCM(water)

* xyz 0 1
C         -4.76553        1.53746        0.01760
C         -4.36531        2.79909        0.42546
O         -3.58736       -1.99737       -0.59503
C         -3.70072       -1.83176       -2.01154
C         -1.49382       -3.06590       -0.19907
C         -7.56363        4.82114        0.09243
H         -3.25469       -2.67760       -2.54430
H         -4.76640       -1.80223       -2.25766
C         -2.12494       -4.39297       -0.54716
C         -0.11902       -2.99086        0.11305
C          0.75024       -4.22550        0.07920
H         -1.75468       -5.18569        0.11139
H          1.80647       -3.98298       -0.07500
H         -4.93632        4.84282        0.77875
C         -8.42973        2.11390       -0.80905
C         -5.27344        3.86071        0.45115
C          0.42435       -1.76126        0.52182
C         -6.60665        3.66055        0.05885
C         -7.01434        2.37995       -0.37284
C         -6.08505        1.32502       -0.37956
H         -1.07025        1.99816        1.02785
H         -3.24801       -0.89367       -2.35094
H          1.81140       -0.29345        2.31938
H          3.36594       -0.81867        1.66349
H         -3.21120       -4.38261       -0.41460
O          1.75506       -1.77866        0.85724
H         -1.90270       -4.65302       -1.58658
H          0.47484       -4.88018       -0.75388
H          0.65135       -4.77660        1.01946
H          2.33582        0.21184        0.66416
H          0.06836        0.31028        0.89614
H         -7.10361        5.70805        0.54121
H         -7.87486        5.08397       -0.92338
H         -8.44476        4.57348        0.69276
O         -3.91884        0.46177       -0.01937
C         -0.38570       -0.61682        0.57331
C          2.32677       -0.59681        1.40210
C         -2.26957       -1.88003       -0.20749
C         -1.75192       -0.63329        0.22076
C         -2.58084        0.62146        0.32707
C         -2.09127        1.80539        0.73594
C         -2.96760        2.98751        0.82291
O         -2.53077        4.06585        1.20302
H         -8.72019        2.80430       -1.60734
H         -8.54473        1.09770       -1.20098
H         -9.11371        2.22542        0.03800
H         -6.38546        0.32813       -0.69574
*
