# ORCA job from PDB
! B3LYP D3BJ def2-SVP Opt TightSCF CPCM(water)

* xyz 0 1
C         -3.76876        0.94423       -0.11683
C         -4.24797        3.30765        0.06347
H         -8.08545        1.63855        0.35765
H         -6.99517        4.35747       -1.14258
H          3.08305       -5.89891        0.11678
H         -5.45180       -0.33992       -0.46493
H         -7.91524        2.01018       -1.38296
H          0.01750        1.51028        0.42577
C         -3.33656        2.24838        0.07057
C         -6.57492        4.22291       -0.14100
C         -7.51449        1.42269       -0.55084
C         -5.12452        0.68726       -0.31872
O         -2.91885       -0.13166       -0.11545
H         -1.13699       -4.55061       -0.32635
C         -6.05871        1.73806       -0.33586
H         -7.66425        0.36622       -0.79763
C          2.76306       -4.85406        0.17423
H         -6.07734        5.15675        0.14184
C         -5.61657        3.06290       -0.13213
H         -2.43730       -2.48547       -0.29384
H         -7.38474        4.05710        0.57646
C          0.65163       -1.17925        0.24797
C          1.39195       -2.37254        0.22769
H          1.20781       -0.26107        0.41381
O          1.35461       -4.81934       -0.01981
C          0.75546       -3.59213        0.02184
C         -0.62460       -3.60523       -0.16394
H         -3.88558        4.32357        0.21286
H          3.28394       -4.30237       -0.61537
H          2.46471       -2.30613        0.37688
H          3.03454       -4.47677        1.16576
C         -1.36205       -2.41450       -0.14356
C         -0.74172       -1.17047        0.06344
C         -1.55620        0.07951        0.08146
C         -1.03054        1.30081        0.27025
C         -1.90389        2.48676        0.27669
O         -1.44104        3.60715        0.44735
*
