# ORCA job from PDB
! B3LYP D3BJ def2-SVP Opt TightSCF CPCM(water)

* xyz 0 1
H          0.71610       -5.37006        0.78020
H         -8.45422        4.20735       -0.23225
C         -1.11117        1.64532        0.11047
H         -2.62889       -2.13126        0.02569
O         -6.42097        4.61289       -0.12238
H         -9.11137        0.68375       -0.29902
H          2.22536       -4.48482        0.87637
C          1.31229       -4.59764        0.27919
C         -1.54604       -2.08052        0.11826
H          0.77428       -5.21413       -1.73414
H         -3.92970        4.71653       -0.05855
C          1.67146       -5.05579       -1.12609
C         -3.88192        1.32468        0.09532
H          2.29712       -4.31619       -1.63720
H          2.30565       -2.05148        0.42470
C         -5.25648        1.07715        0.06177
C         -0.88753       -0.83992        0.19638
C         -8.02364        0.62669       -0.19404
C         -1.96039        2.84830        0.06816
C         -0.84183       -3.29045        0.15103
C          0.54936       -3.29848        0.26700
O         -1.46551        3.96713        0.04711
C         -6.17252        2.13719       -0.01804
O         -3.05335        0.23407        0.16501
C         -1.67413        0.42697        0.15713
H          1.09533        0.04625        0.38475
H         -7.98858        5.63900        0.68203
H         -1.39262       -4.22613        0.08290
C          0.51232       -0.86728        0.31263
H          2.22496       -5.99928       -1.08668
C          1.22085       -2.07621        0.34211
H         -7.80769        0.06397        0.71991
H         -0.04842        1.83892        0.09606
C         -4.30305        3.69493       -0.02055
C         -3.41031        2.62684        0.04862
O         -7.52694        1.95579       -0.10446
C         -7.71368        4.60082        0.47017
H         -7.73059        4.05810        1.42151
H         -7.63086        0.11525       -1.07897
H         -5.58141        0.04241        0.08945
C         -5.68426        3.45934       -0.03556
*
